500
750
600
600
599
599
598
597
595
595
594
592
590
588
588
587
585
584
579
577
576
575
574
570
568
568
567
566
566
565
561
559
559
558
558
558
555
555
555
553
552
551
550
548
547
546
541
541
541
541
541
538
535
535
534
534
534
531
530
529
528
528
526
526
524
523
522
522
522
520
519
517
516
516
515
514
513
513
513
513
511
511
510
507
505
503
502
502
501
501
501
500
499
498
495
493
492
491
491
490
490
489
487
486
486
485
485
485
484
481
480
479
477
476
476
475
475
474
470
469
468
467
466
465
464
464
464
464
463
463
463
462
462
462
461
459
459
458
457
455
453
451
451
448
446
445
445
445
444
443
442
441
440
440
439
439
437
435
435
435
433
433
433
433
432
431
431
431
430
428
428
428
427
427
427
426
425
423
422
421
421
420
420
419
417
416
415
415
414
412
409
409
408
408
406
404
401
401
401
397
394
394
394
393
393
392
390
388
385
385
385
384
384
383
381
380
379
379
378
378
378
377
376
375
375
374
373
373
371
371
370
368
368
366
365
365
363
362
362
361
361
361
361
360
359
358
357
356
355
354
353
352
351
350
347
347
346
345
342
341
341
336
336
333
333
332
332
330
328
328
328
325
324
323
322
321
321
320
319
319
318
317
313
312
312
311
311
311
311
310
306
305
305
304
303
301
300
296
295
294
293
293
292
289
286
285
285
280
279
279
278
278
277
276
275
274
274
272
272
271
270
269
268
267
266
266
266
266
264
264
263
261
259
258
258
258
256
255
255
254
252
251
251
249
248
247
242
239
239
236
236
236
235
234
232
232
231
231
231
231
230
230
228
227
227
225
225
223
220
218
217
216
215
214
211
209
209
208
208
207
207
206
206
205
202
200
199
199
198
195
193
191
189
187
186
186
186
185
184
182
180
179
179
179
178
176
175
174
174
173
170
168
165
164
164
163
162
162
160
158
156
155
149
147
146
146
143
142
141
140
139
138
137
137
136
136
136
134
133
133
133
133
131
131
131
129
128
126
123
122
121
121
121
119
118
118
118
117
115
114
112
112
112
110
109
108
107
105
104
104
101
101
97
97
96
96
96
96
95
95
94
92
92
89
89
89
89
89
87
84
83
81
80
80
78
77
77
77
77
76
76
76
